137
100
20
27
7
41
16
44
13
27
4
35
2
2
14
19
21
41
42
12
14
7
37
19
43
50
26
15
26
8
24
21
8
40
46
43
29
42
3
30
20
26
22
43
21
23
12
22
2
32
1
10
2
8
20
17
1
43
10
27
29
2
5
31
13
6
34
30
14
5
33
44
6
14
36
43
34
20
6
28
18
40
24
3
32
30
38
41
11
1
6
12
4
7
1
40
6
5
12
29
21
7
30
6
14
34
28
1
18
30
46
8
39
24
19
28
39
41
19
9
19
34
30
23
41
14
21
33
25
38
41
20
6
16
30
4
38
25
8
